NAME: ant2
TYPE: TSP
COMMENT: 21-city problem (Groetschel)
DIMENSION: 2
EDGE_WEIGHT_TYPE: EXPLICIT
EDGE_WEIGHT_FORMAT: LOWER_DIAG_ROW 
EDGE_WEIGHT_SECTION
0 
4 0                                
EOF            

